submitit INFO (2023-05-02 18:49:31,317) - Starting with JobEnvironment(job_id=27729, hostname=cpunode3, local_rank=4(5), node=0(1), global_rank=4(5))
submitit INFO (2023-05-02 18:49:31,317) - Loading pickle: /h/30/pashootan/Matrix-Mult-CP/src/../logs/4/1x3x2_6_May02_18:49:29/27729_submitted.pkl
 ! --------------------------------------------------- CP Optimizer 22.1.1.0 --
 ! Satisfiability problem - 66 variables, 36 constraints
 ! TimeLimit            = 7200
 ! Workers              = 8
 ! LogPeriod            = 10000000
 ! RandomSeed           = 854
 ! Initial process time : 0.00s (0.00s extraction + 0.00s propagation)
 !  . Log search space  : 104.6 (before), 104.6 (after)
 !  . Memory usage      : 398.6 kB (before), 398.6 kB (after)
 ! Using parallel search with 8 workers.
 ! ----------------------------------------------------------------------------
 !               Branches  Non-fixed    W       Branch decision
 *                   2967  0.04s        2        -1  = U3_0
 ! ----------------------------------------------------------------------------
 ! Search completed, 1 solution found.
 ! ----------------------------------------------------------------------------
 ! Number of branches     : 28384
 ! Number of fails        : 12834
 ! Total memory usage     : 6.7 MB (6.7 MB CP Optimizer + 0.0 MB Concert)
 ! Time spent in solve    : 0.05s (0.05s engine + 0.00s extraction)
 ! Search speed (br. / s) : 567680.0
 ! ----------------------------------------------------------------------------
Feasible
Model is valid
Saving solution to: /h/30/pashootan/Matrix-Mult-CP/logs/4/1x3x2_6_May02_18:49:29/27729_4_solution.txt
Saving stats to: /h/30/pashootan/Matrix-Mult-CP/logs/4/1x3x2_6_May02_18:49:29/27729_4_stats.csv
submitit INFO (2023-05-02 18:49:32,142) - Job completed successfully
